Optimize a model with 4500259 rows, 2642288 columns and 16022160 nonzeros
Model has 1560 quadratic objective terms
Coefficient statistics:
  Matrix range    [1e+00, 7e+02]
  Objective range [1e+02, 7e+02]
  Bounds range    [1e+00, 1e+05]
  RHS range       [1e+00, 1e+04]
Presolve removed 213286 rows and 168800 columns (presolve time = 5s) ...
Presolve removed 243885 rows and 184080 columns (presolve time = 18s) ...
Presolve removed 243885 rows and 222268 columns (presolve time = 20s) ...
Presolve removed 243885 rows and 222268 columns (presolve time = 25s) ...
Presolve removed 243885 rows and 222268 columns (presolve time = 30s) ...
Presolve removed 243885 rows and 222268 columns (presolve time = 35s) ...
Presolve removed 243885 rows and 222268 columns (presolve time = 40s) ...
Presolve removed 282112 rows and 260495 columns (presolve time = 46s) ...
Presolve removed 282112 rows and 260495 columns (presolve time = 50s) ...
Presolve removed 297450 rows and 260495 columns (presolve time = 56s) ...
Presolve removed 297450 rows and 260495 columns (presolve time = 60s) ...
Presolve removed 297450 rows and 260495 columns (presolve time = 65s) ...
Presolve removed 297450 rows and 260495 columns (presolve time = 70s) ...
Presolve removed 307883 rows and 260495 columns (presolve time = 75s) ...
Presolve removed 315021 rows and 260495 columns (presolve time = 80s) ...
Presolve removed 316261 rows and 260495 columns (presolve time = 85s) ...
Presolve removed 316261 rows and 260495 columns (presolve time = 90s) ...
Presolve removed 316261 rows and 260495 columns (presolve time = 95s) ...
Presolve removed 316261 rows and 260495 columns (presolve time = 100s) ...
Presolve removed 316261 rows and 260495 columns (presolve time = 105s) ...
Presolve removed 316261 rows and 260495 columns (presolve time = 110s) ...
Presolve removed 316261 rows and 260495 columns (presolve time = 115s) ...
Presolve removed 316261 rows and 260495 columns (presolve time = 120s) ...
Presolve removed 355261 rows and 260534 columns (presolve time = 125s) ...
Presolve removed 411929 rows and 289070 columns (presolve time = 136s) ...
Presolve removed 490508 rows and 445835 columns (presolve time = 142s) ...
Presolve removed 643274 rows and 445835 columns (presolve time = 152s) ...
Presolve removed 643274 rows and 445835 columns (presolve time = 157s) ...
Presolve removed 643274 rows and 445835 columns (presolve time = 170s) ...
Presolve removed 643274 rows and 445835 columns (presolve time = 170s) ...
Presolve removed 643274 rows and 445835 columns (presolve time = 175s) ...
Presolve removed 643274 rows and 445835 columns (presolve time = 180s) ...
Presolve removed 643274 rows and 445835 columns (presolve time = 185s) ...
Presolve removed 643274 rows and 445835 columns (presolve time = 190s) ...
Presolve removed 643274 rows and 445835 columns (presolve time = 195s) ...
Presolve removed 643274 rows and 445835 columns (presolve time = 200s) ...
Presolve removed 643274 rows and 445835 columns (presolve time = 205s) ...
Presolve removed 643274 rows and 445835 columns (presolve time = 210s) ...
Presolve removed 643274 rows and 445835 columns (presolve time = 215s) ...
Presolve removed 643274 rows and 445835 columns (presolve time = 220s) ...
Presolve removed 643274 rows and 445835 columns (presolve time = 225s) ...
Presolve removed 643274 rows and 445835 columns (presolve time = 230s) ...
Presolve removed 643274 rows and 445835 columns (presolve time = 235s) ...
Presolve removed 643274 rows and 445835 columns (presolve time = 240s) ...
Presolve removed 643274 rows and 445835 columns (presolve time = 245s) ...
Presolve removed 643274 rows and 445835 columns (presolve time = 250s) ...
Presolve removed 643274 rows and 445835 columns (presolve time = 255s) ...
Presolve removed 643274 rows and 445835 columns (presolve time = 260s) ...
Presolve removed 643274 rows and 445835 columns (presolve time = 265s) ...
Presolve removed 643274 rows and 445835 columns (presolve time = 270s) ...
Presolve removed 643274 rows and 445835 columns (presolve time = 275s) ...
Presolve removed 643274 rows and 445835 columns (presolve time = 280s) ...
Presolve removed 643274 rows and 445835 columns (presolve time = 285s) ...
Presolve removed 643274 rows and 445835 columns (presolve time = 290s) ...
Presolve removed 643274 rows and 445835 columns (presolve time = 295s) ...
Presolve removed 643274 rows and 445835 columns (presolve time = 300s) ...
Presolve removed 643274 rows and 445835 columns (presolve time = 305s) ...
Presolve removed 643274 rows and 445835 columns (presolve time = 310s) ...
Presolve removed 643274 rows and 445835 columns (presolve time = 315s) ...
Presolve removed 643274 rows and 445835 columns (presolve time = 320s) ...
Presolve removed 643274 rows and 445835 columns (presolve time = 325s) ...
Presolve removed 643274 rows and 445835 columns (presolve time = 330s) ...
Presolve removed 643274 rows and 445835 columns (presolve time = 335s) ...
Presolve removed 643274 rows and 445835 columns (presolve time = 340s) ...
Presolve removed 643274 rows and 445835 columns (presolve time = 345s) ...
Presolve removed 643274 rows and 445835 columns (presolve time = 350s) ...
Presolve removed 643274 rows and 445835 columns (presolve time = 355s) ...
Presolve removed 643274 rows and 445835 columns (presolve time = 360s) ...
Presolve removed 643274 rows and 445835 columns (presolve time = 365s) ...
Presolve removed 643274 rows and 445835 columns (presolve time = 370s) ...
Presolve removed 643274 rows and 445835 columns (presolve time = 375s) ...
Presolve removed 643274 rows and 445835 columns (presolve time = 380s) ...
Presolve removed 643274 rows and 445835 columns (presolve time = 385s) ...
Presolve removed 643274 rows and 445835 columns (presolve time = 390s) ...
Presolve removed 643274 rows and 445835 columns (presolve time = 395s) ...
Presolve removed 643274 rows and 445835 columns (presolve time = 400s) ...
Presolve removed 643274 rows and 445835 columns (presolve time = 405s) ...
Presolve removed 643274 rows and 445835 columns (presolve time = 410s) ...
Presolve removed 643274 rows and 445835 columns (presolve time = 415s) ...
Presolve removed 643274 rows and 445835 columns (presolve time = 420s) ...
Presolve removed 643274 rows and 445835 columns (presolve time = 425s) ...
Presolve removed 643274 rows and 445835 columns (presolve time = 430s) ...
Presolve removed 643274 rows and 445835 columns (presolve time = 435s) ...
Presolve removed 643274 rows and 445835 columns (presolve time = 440s) ...
Presolve removed 643274 rows and 445835 columns (presolve time = 445s) ...
Presolve removed 643274 rows and 445835 columns (presolve time = 450s) ...
Presolve removed 643274 rows and 445835 columns (presolve time = 455s) ...
Presolve removed 643274 rows and 445835 columns (presolve time = 460s) ...
Presolve removed 643274 rows and 445835 columns (presolve time = 465s) ...
Presolve removed 643274 rows and 445835 columns (presolve time = 470s) ...
Presolve removed 643274 rows and 445835 columns (presolve time = 475s) ...
Presolve removed 643274 rows and 445835 columns (presolve time = 480s) ...
Presolve removed 643274 rows and 445835 columns (presolve time = 485s) ...
Presolve removed 643274 rows and 445835 columns (presolve time = 490s) ...
Presolve removed 643274 rows and 445835 columns (presolve time = 495s) ...
Presolve removed 643274 rows and 445835 columns (presolve time = 500s) ...
Presolve removed 643274 rows and 445835 columns (presolve time = 505s) ...
Presolve removed 643274 rows and 445835 columns (presolve time = 510s) ...
Presolve removed 643274 rows and 445835 columns (presolve time = 515s) ...
Presolve removed 643274 rows and 445835 columns (presolve time = 520s) ...
Presolve removed 643274 rows and 445835 columns (presolve time = 525s) ...
Presolve removed 643274 rows and 445835 columns (presolve time = 530s) ...
Presolve removed 643274 rows and 445835 columns (presolve time = 535s) ...
Presolve removed 643274 rows and 445835 columns (presolve time = 540s) ...
Presolve removed 643274 rows and 445835 columns (presolve time = 545s) ...
Presolve removed 643274 rows and 445835 columns (presolve time = 550s) ...
Presolve removed 643274 rows and 445835 columns (presolve time = 555s) ...
Presolve removed 643274 rows and 445835 columns (presolve time = 560s) ...
Presolve removed 643274 rows and 445835 columns (presolve time = 565s) ...
Presolve removed 643274 rows and 445835 columns (presolve time = 570s) ...
Presolve removed 643274 rows and 445835 columns (presolve time = 575s) ...
Presolve removed 643274 rows and 445835 columns (presolve time = 580s) ...
Presolve removed 643274 rows and 445835 columns (presolve time = 585s) ...
Presolve removed 643274 rows and 445835 columns (presolve time = 590s) ...
Presolve removed 643274 rows and 445835 columns (presolve time = 595s) ...
Presolve removed 643274 rows and 445835 columns (presolve time = 600s) ...
Presolve removed 643274 rows and 445835 columns (presolve time = 605s) ...
Presolve removed 643274 rows and 445835 columns (presolve time = 610s) ...
Presolve removed 643274 rows and 445835 columns (presolve time = 615s) ...
Presolve removed 643274 rows and 445835 columns (presolve time = 620s) ...
Presolve removed 643274 rows and 445835 columns (presolve time = 625s) ...
Presolve removed 643274 rows and 445835 columns (presolve time = 630s) ...
Presolve removed 643274 rows and 445835 columns (presolve time = 635s) ...
Presolve removed 643274 rows and 445835 columns (presolve time = 640s) ...
Presolve removed 643274 rows and 445835 columns (presolve time = 645s) ...
Presolve removed 643274 rows and 445835 columns (presolve time = 650s) ...
Presolve removed 643274 rows and 445835 columns (presolve time = 655s) ...
Presolve removed 643274 rows and 445835 columns (presolve time = 660s) ...
Presolve removed 643274 rows and 445835 columns (presolve time = 665s) ...
Presolve removed 643274 rows and 445835 columns (presolve time = 670s) ...
Presolve removed 643274 rows and 445835 columns (presolve time = 675s) ...
Presolve removed 643274 rows and 445835 columns (presolve time = 680s) ...
Presolve removed 643274 rows and 445835 columns (presolve time = 685s) ...
Presolve removed 667111 rows and 485768 columns (presolve time = 696s) ...
Presolve removed 691171 rows and 509827 columns (presolve time = 700s) ...
Presolve removed 715230 rows and 509827 columns (presolve time = 705s) ...
Presolve removed 736744 rows and 509827 columns (presolve time = 714s) ...
Presolve removed 736744 rows and 509827 columns (presolve time = 718s) ...
Presolve removed 736744 rows and 509827 columns (presolve time = 730s) ...
Presolve removed 736744 rows and 509827 columns (presolve time = 730s) ...
Presolve removed 736744 rows and 509827 columns (presolve time = 735s) ...
Presolve removed 736744 rows and 509827 columns (presolve time = 740s) ...
Presolve removed 736744 rows and 509827 columns (presolve time = 745s) ...
Presolve removed 736744 rows and 509827 columns (presolve time = 750s) ...
Presolve removed 736744 rows and 509827 columns (presolve time = 755s) ...
Presolve removed 738495 rows and 511271 columns (presolve time = 1027s) ...
Presolve removed 738495 rows and 511271 columns
Presolve time: 1027.18s
Presolved: 3763324 rows, 2132577 columns, 13918532 nonzeros
Variable types: 577839 continuous, 1554738 integer (1554738 binary)
Found heuristic solution: objective 10554.833333
Optimize a model with 3763324 rows, 2132577 columns and 13918532 nonzeros
Coefficient statistics:
  Matrix range    [1e-01, 7e+02]
  Objective range [1e+00, 7e+02]
  Bounds range    [6e-01, 4e+01]
  RHS range       [1e+00, 1e+04]

Deterministic concurrent LP optimizer: primal simplex, dual simplex, and barrier
Showing barrier log only...

Presolve removed 0 rows and 0 columns (presolve time = 9s) ...
Presolve removed 300 rows and 0 columns (presolve time = 25s) ...
Presolve removed 300 rows and 0 columns (presolve time = 33s) ...
Presolve removed 709 rows and 0 columns (presolve time = 35s) ...
Presolve removed 709 rows and 0 columns
Presolved: 3762615 rows, 2132577 columns, 13888963 nonzeros

Root barrier log...

